sifdecoder -A pc64.lnx.gfo -st   SPANHYD

 Problem name: SPANHYD

 Double precision version will be formed

 The objective function uses 1 nonlinear group
 
 There are 33 linear equality constraints
 
 There are 81 variables bounded from below and above 
 There are 16 fixed variables
 
 
 File successfully decoded
 CUTEST: tools (double precision version) compiled successfully
 CUTEst: ipopt (double precision version) compiled successfully

******************************************************************************
This program contains Ipopt, a library for large-scale nonlinear optimization.
 Ipopt is released as open source code under the Eclipse Public License (EPL).
         For more information visit http://projects.coin-or.org/Ipopt
******************************************************************************

This is Ipopt version trunk, running with linear solver ma57.

Number of nonzeros in equality constraint Jacobian...:      162
Number of nonzeros in inequality constraint Jacobian.:        0
Number of nonzeros in Lagrangian Hessian.............:      327

Total number of variables............................:       81
                     variables with only lower bounds:        0
                variables with lower and upper bounds:       81
                     variables with only upper bounds:        0
Total number of equality constraints.................:       33
Total number of inequality constraints...............:        0
        inequality constraints with only lower bounds:        0
   inequality constraints with lower and upper bounds:        0
        inequality constraints with only upper bounds:        0

iter    objective    inf_pr   inf_du lg(mu)  ||d||  lg(rg) alpha_du alpha_pr  ls
   0  2.2671442e+10 6.11e-01 1.00e+02  -1.0 0.00e+00    -  0.00e+00 0.00e+00   0
   1  2.2665200e+10 6.05e-01 9.98e+01  -1.0 5.85e+00    -  1.10e-02 9.88e-03f  1
   2  2.2565457e+10 5.93e-01 8.29e+01  -1.0 3.76e+01    -  7.10e-04 1.89e-02f  1
   3  2.2385010e+10 5.88e-01 8.21e+01  -1.0 2.29e+02    -  2.08e-03 9.68e-03f  1
   4  2.1092686e+10 5.67e-01 7.99e+01  -1.0 5.28e+02    -  3.58e-03 3.53e-02f  1
   5  2.0171425e+10 5.52e-01 7.78e+01  -1.0 5.35e+02    -  3.12e-02 2.55e-02f  1
   6  5.4852654e+09 2.66e-01 5.88e+02  -1.0 5.04e+02    -  2.87e-03 5.18e-01f  1
   7  5.0184071e+09 2.54e-01 4.42e+02  -1.0 2.74e+02    -  1.03e-01 4.64e-02f  1
   8  3.1400736e+09 1.98e-01 6.54e+02  -1.0 2.48e+02    -  8.02e-02 2.21e-01f  1
   9  1.8981776e+09 1.52e-01 6.03e+02  -1.0 1.74e+02    -  1.95e-01 2.33e-01f  1
iter    objective    inf_pr   inf_du lg(mu)  ||d||  lg(rg) alpha_du alpha_pr  ls
  10  6.7824893e+08 8.79e-02 1.28e+03  -1.0 1.22e+02    -  1.38e-01 4.20e-01f  1
  11  2.8047752e+08 5.50e-02 3.60e+02  -1.0 6.33e+01    -  4.67e-01 3.74e-01f  1
  12  1.9163596e+07 1.29e-02 1.62e+03  -1.0 3.27e+01    -  4.57e-01 7.66e-01f  1
  13  6.0692970e+05 2.02e-03 1.19e+03  -1.0 6.10e+00    -  6.85e-01 8.43e-01f  1
  14  3.5942923e+02 5.97e-12 7.11e+02  -1.0 9.44e+00    -  8.92e-01 1.00e+00f  1
  15  1.3150278e+03 7.42e-06 8.86e+02  -1.0 5.83e+01    -  5.64e-01 1.00e+00f  1
  16  3.1416269e+03 7.96e-13 1.75e+02  -1.0 9.15e+01    -  9.43e-01 1.00e+00f  1
  17  8.2234189e+03 8.20e-07 5.53e+01  -1.0 1.83e+02    -  8.28e-01 1.00e+00f  1
  18  3.6698448e+02 5.79e-07 1.56e-02  -1.0 8.66e+00    -  1.00e+00 1.00e+00f  1
  19  2.3973829e+02 1.67e-06 4.54e-07  -3.8 4.68e-02    -  1.00e+00 1.00e+00H  1
iter    objective    inf_pr   inf_du lg(mu)  ||d||  lg(rg) alpha_du alpha_pr  ls
  20  2.3986668e+02 1.15e-06 5.59e-04  -3.8 6.17e+00    -  1.00e+00 1.00e+00h  1
  21  2.3973800e+02 7.48e-09 1.30e-01  -5.7 2.27e-04  -4.0 9.94e-01 1.00e+00h  1
  22  2.3973800e+02 1.84e-10 2.41e-06  -5.7 3.36e-01    -  1.00e+00 1.00e+00h  1
  23  2.3973800e+02 1.22e-12 8.05e-13  -8.6 2.31e-04    -  1.00e+00 1.00e+00h  1
  24  2.3973800e+02 4.55e-13 1.00e-11 -11.0 7.18e-04    -  1.00e+00 1.00e+00h  1

Number of Iterations....: 24

                                   (scaled)                 (unscaled)
Objective...............:   2.7843417453094995e-04    2.3973800070475491e+02
Dual infeasibility......:   1.0034834129087695e-11    8.6402147852863874e-06
Constraint violation....:   4.5474735088646412e-13    4.5474735088646412e-13
Complementarity.........:   1.0808018210610455e-11    9.3059434308208972e-06
Overall NLP error.......:   1.0808018210610455e-11    9.3059434308208972e-06


Number of objective function evaluations             = 27
Number of objective gradient evaluations             = 25
Number of equality constraint evaluations            = 27
Number of inequality constraint evaluations          = 0
Number of equality constraint Jacobian evaluations   = 25
Number of inequality constraint Jacobian evaluations = 0
Number of Lagrangian Hessian evaluations             = 24
Total CPU secs in IPOPT (w/o function evaluations)   =      0.055
Total CPU secs in NLP function evaluations           =      0.004

EXIT: Optimal Solution Found.

************************ CUTEst statistics ************************


 Package used            :  IPOPT
 Problem                 :  SPANHYD   
 # variables             =              97
 # constraints           =              33
 # objective functions   =        0.5300000E+02
 # objective gradients   =        0.2600000E+02
 # objective Hessians    =        0.2500000E+02
 # Hessian-vector prdct  =        0.0000000E+00
 # constraints functions =        0.5400000E+02
 # constraints gradients =        0.2700000E+02
 # constraints Hessians  =        0.2500000E+02
 Exit code               =               0
 Final f                 =        2.3973800070475491D+02
 Bounds feasibility      =        1.6411323485954199D-05
 Set up time             =            0.01 seconds
 Solve time              =            0.17 seconds


******************************************************************

